
-3.06
-2.96
-2.86
-2.8
-2.76
-2.72
-2.6
-2.54
-2.5
-2.48
-2.46
-2.38
-2.34
-2.3
-2.28
-2.18
-2.16
-2.08
-2.04
-2.02
-2.02
-2.02
-2.02
-2.02
-2.02
-2.02
-2.02
-2.02
-2.02
-2.02
-2.02
-2.02
-2.02
-2.02
-2.02
-2.02
-2.02
-2.02